60
1 0 26
2 0 10
2 1 29
3 0 33
3 1 44
3 2 14
4 0 7
4 1 44
4 2 12
4 3 47
5 0 48
5 1 40
5 2 46
5 3 15
5 4 36
6 0 58
6 1 60
6 2 57
6 3 31
6 4 25
6 5 9
7 0 26
7 1 38
7 2 47
7 3 48
7 4 43
7 5 19
7 6 18
8 0 43
8 1 28
8 2 25
8 3 27
8 4 32
8 5 7
8 6 9
8 7 45
9 0 27
9 1 8
9 2 4
9 3 22
9 4 16
9 5 28
9 6 22
9 7 4
9 8 7
10 0 34
10 1 12
10 2 48
10 3 1
10 4 27
10 5 13
10 6 42
10 7 51
10 8 56
10 9 57
11 0 34
11 1 39
11 2 46
11 3 8
11 4 52
11 5 4
11 6 36
11 7 3
11 8 1
11 9 32
11 10 39
12 0 12
12 1 29
12 2 25
12 3 43
12 4 23
12 5 46
12 6 15
12 7 56
12 8 28
12 9 28
12 10 54
12 11 19
13 0 42
13 1 55
13 2 57
13 3 1
13 4 29
13 5 19
13 6 5
13 7 48
13 8 37
13 9 56
13 10 54
13 11 18
13 12 39
14 0 4
14 1 38
14 2 57
14 3 51
14 4 59
14 5 40
14 6 35
14 7 48
14 8 37
14 9 44
14 10 17
14 11 50
14 12 4
14 13 23
15 0 54
15 1 35
15 2 11
15 3 53
15 4 8
15 5 29
15 6 28
15 7 46
15 8 22
15 9 4
15 10 26
15 11 39
15 12 42
15 13 17
15 14 2
16 0 9
16 1 24
16 2 10
16 3 37
16 4 47
16 5 11
16 6 38
16 7 50
16 8 19
16 9 58
16 10 18
16 11 14
16 12 9
16 13 46
16 14 30
16 15 33
17 0 18
17 1 14
17 2 52
17 3 53
17 4 16
17 5 34
17 6 16
17 7 20
17 8 59
17 9 15
17 10 55
17 11 42
17 12 27
17 13 36
17 14 55
17 15 25
17 16 46
18 0 1
18 1 39
18 2 45
18 3 39
18 4 37
18 5 29
18 6 59
18 7 52
18 8 31
18 9 11
18 10 6
18 11 55
18 12 60
18 13 41
18 14 4
18 15 50
18 16 15
18 17 3
19 0 1
19 1 24
19 2 30
19 3 57
19 4 36
19 5 37
19 6 42
19 7 60
19 8 36
19 9 20
19 10 6
19 11 41
19 12 22
19 13 50
19 14 15
19 15 35
19 16 40
19 17 8
19 18 32
20 0 37
20 1 16
20 2 41
20 3 60
20 4 56
20 5 3
20 6 42
20 7 11
20 8 51
20 9 31
20 10 3
20 11 14
20 12 22
20 13 9
20 14 53
20 15 32
20 16 36
20 17 56
20 18 3
20 19 36
21 0 20
21 1 53
21 2 60
21 3 51
21 4 46
21 5 24
21 6 2
21 7 52
21 8 57
21 9 57
21 10 40
21 11 40
21 12 22
21 13 19
21 14 56
21 15 42
21 16 59
21 17 22
21 18 30
21 19 19
21 20 28
22 0 6
22 1 60
22 2 47
22 3 28
22 4 26
22 5 17
22 6 22
22 7 14
22 8 60
22 9 59
22 10 55
22 11 44
22 12 59
22 13 59
22 14 3
22 15 26
22 16 37
22 17 35
22 18 38
22 19 2
22 20 55
22 21 15
23 0 34
23 1 59
23 2 54
23 3 32
23 4 43
23 5 36
23 6 12
23 7 34
23 8 34
23 9 60
23 10 54
23 11 46
23 12 12
23 13 19
23 14 60
23 15 10
23 16 14
23 17 51
23 18 51
23 19 18
23 20 16
23 21 53
23 22 23
24 0 29
24 1 41
24 2 48
24 3 7
24 4 9
24 5 46
24 6 26
24 7 7
24 8 14
24 9 2
24 10 38
24 11 28
24 12 5
24 13 28
24 14 47
24 15 60
24 16 17
24 17 41
24 18 43
24 19 9
24 20 19
24 21 56
24 22 5
24 23 22
25 0 59
25 1 20
25 2 13
25 3 21
25 4 59
25 5 15
25 6 5
25 7 4
25 8 16
25 9 5
25 10 48
25 11 23
25 12 41
25 13 20
25 14 54
25 15 37
25 16 21
25 17 27
25 18 14
25 19 24
25 20 42
25 21 4
25 22 11
25 23 52
25 24 5
26 0 24
26 1 41
26 2 42
26 3 22
26 4 59
26 5 4
26 6 48
26 7 55
26 8 10
26 9 55
26 10 33
26 11 5
26 12 48
26 13 19
26 14 53
26 15 39
26 16 17
26 17 5
26 18 45
26 19 25
26 20 35
26 21 15
26 22 31
26 23 31
26 24 20
26 25 25
27 0 33
27 1 60
27 2 42
27 3 1
27 4 1
27 5 20
27 6 51
27 7 37
27 8 27
27 9 20
27 10 17
27 11 36
27 12 48
27 13 53
27 14 60
27 15 7
27 16 11
27 17 29
27 18 43
27 19 59
27 20 60
27 21 19
27 22 22
27 23 54
27 24 45
27 25 43
27 26 30
28 0 17
28 1 17
28 2 49
28 3 34
28 4 24
28 5 35
28 6 58
28 7 4
28 8 57
28 9 10
28 10 17
28 11 59
28 12 50
28 13 40
28 14 16
28 15 8
28 16 57
28 17 27
28 18 21
28 19 16
28 20 33
28 21 56
28 22 58
28 23 58
28 24 59
28 25 17
28 26 18
28 27 58
29 0 5
29 1 31
29 2 60
29 3 3
29 4 43
29 5 13
29 6 22
29 7 56
29 8 56
29 9 20
29 10 51
29 11 46
29 12 1
29 13 54
29 14 58
29 15 56
29 16 4
29 17 29
29 18 41
29 19 36
29 20 13
29 21 49
29 22 18
29 23 57
29 24 26
29 25 57
29 26 60
29 27 9
29 28 30
30 0 41
30 1 50
30 2 36
30 3 51
30 4 17
30 5 37
30 6 42
30 7 2
30 8 48
30 9 12
30 10 29
30 11 8
30 12 22
30 13 6
30 14 45
30 15 30
30 16 9
30 17 2
30 18 29
30 19 32
30 20 16
30 21 31
30 22 54
30 23 16
30 24 25
30 25 4
30 26 59
30 27 17
30 28 14
30 29 44
31 0 52
31 1 54
31 2 40
31 3 15
31 4 8
31 5 46
31 6 38
31 7 49
31 8 48
31 9 26
31 10 8
31 11 15
31 12 55
31 13 28
31 14 11
31 15 14
31 16 38
31 17 54
31 18 33
31 19 47
31 20 25
31 21 38
31 22 60
31 23 3
31 24 49
31 25 37
31 26 32
31 27 21
31 28 43
31 29 58
31 30 59
32 0 48
32 1 9
32 2 46
32 3 38
32 4 59
32 5 8
32 6 39
32 7 5
32 8 37
32 9 57
32 10 45
32 11 21
32 12 11
32 13 2
32 14 35
32 15 50
32 16 48
32 17 12
32 18 48
32 19 51
32 20 56
32 21 55
32 22 3
32 23 45
32 24 44
32 25 7
32 26 20
32 27 44
32 28 3
32 29 14
32 30 27
32 31 5
33 0 21
33 1 52
33 2 39
33 3 18
33 4 20
33 5 18
33 6 27
33 7 19
33 8 41
33 9 27
33 10 17
33 11 58
33 12 19
33 13 6
33 14 18
33 15 7
33 16 13
33 17 45
33 18 44
33 19 20
33 20 39
33 21 4
33 22 33
33 23 1
33 24 13
33 25 59
33 26 59
33 27 10
33 28 9
33 29 50
33 30 50
33 31 28
33 32 51
34 0 6
34 1 5
34 2 7
34 3 30
34 4 54
34 5 13
34 6 45
34 7 19
34 8 39
34 9 46
34 10 24
34 11 34
34 12 16
34 13 27
34 14 10
34 15 44
34 16 31
34 17 12
34 18 13
34 19 22
34 20 9
34 21 52
34 22 8
34 23 8
34 24 21
34 25 28
34 26 2
34 27 41
34 28 23
34 29 11
34 30 30
34 31 2
34 32 37
34 33 26
35 0 39
35 1 24
35 2 5
35 3 55
35 4 48
35 5 15
35 6 26
35 7 17
35 8 15
35 9 18
35 10 60
35 11 49
35 12 46
35 13 19
35 14 8
35 15 25
35 16 3
35 17 43
35 18 6
35 19 42
35 20 46
35 21 5
35 22 21
35 23 59
35 24 58
35 25 38
35 26 47
35 27 27
35 28 28
35 29 48
35 30 11
35 31 50
35 32 3
35 33 38
35 34 25
36 0 26
36 1 23
36 2 38
36 3 35
36 4 9
36 5 48
36 6 19
36 7 27
36 8 2
36 9 44
36 10 33
36 11 53
36 12 23
36 13 8
36 14 28
36 15 53
36 16 34
36 17 11
36 18 29
36 19 46
36 20 55
36 21 28
36 22 46
36 23 18
36 24 24
36 25 53
36 26 9
36 27 4
36 28 4
36 29 24
36 30 20
36 31 10
36 32 23
36 33 17
36 34 57
36 35 10
37 0 48
37 1 21
37 2 39
37 3 53
37 4 27
37 5 24
37 6 32
37 7 19
37 8 41
37 9 55
37 10 23
37 11 59
37 12 42
37 13 47
37 14 34
37 15 20
37 16 46
37 17 16
37 18 39
37 19 2
37 20 31
37 21 58
37 22 3
37 23 21
37 24 31
37 25 6
37 26 8
37 27 49
37 28 5
37 29 35
37 30 50
37 31 59
37 32 43
37 33 40
37 34 33
37 35 5
37 36 7
38 0 57
38 1 49
38 2 29
38 3 26
38 4 26
38 5 10
38 6 42
38 7 59
38 8 24
38 9 10
38 10 14
38 11 60
38 12 47
38 13 29
38 14 19
38 15 52
38 16 60
38 17 20
38 18 26
38 19 1
38 20 22
38 21 1
38 22 22
38 23 27
38 24 2
38 25 5
38 26 57
38 27 21
38 28 24
38 29 24
38 30 44
38 31 39
38 32 54
38 33 17
38 34 24
38 35 10
38 36 38
38 37 20
39 0 36
39 1 49
39 2 49
39 3 43
39 4 29
39 5 59
39 6 29
39 7 59
39 8 3
39 9 3
39 10 47
39 11 40
39 12 21
39 13 47
39 14 34
39 15 16
39 16 49
39 17 53
39 18 28
39 19 30
39 20 30
39 21 60
39 22 27
39 23 33
39 24 52
39 25 6
39 26 26
39 27 4
39 28 31
39 29 47
39 30 54
39 31 9
39 32 58
39 33 5
39 34 4
39 35 7
39 36 17
39 37 57
39 38 19
40 0 23
40 1 13
40 2 6
40 3 60
40 4 23
40 5 14
40 6 20
40 7 38
40 8 22
40 9 34
40 10 11
40 11 16
40 12 48
40 13 60
40 14 45
40 15 24
40 16 17
40 17 14
40 18 56
40 19 50
40 20 28
40 21 60
40 22 22
40 23 20
40 24 31
40 25 9
40 26 59
40 27 54
40 28 40
40 29 30
40 30 47
40 31 5
40 32 16
40 33 13
40 34 23
40 35 38
40 36 26
40 37 42
40 38 21
40 39 29
41 0 51
41 1 46
41 2 28
41 3 40
41 4 33
41 5 10
41 6 19
41 7 54
41 8 41
41 9 45
41 10 53
41 11 53
41 12 50
41 13 15
41 14 13
41 15 15
41 16 53
41 17 58
41 18 1
41 19 11
41 20 54
41 21 4
41 22 2
41 23 54
41 24 28
41 25 17
41 26 28
41 27 25
41 28 19
41 29 17
41 30 39
41 31 25
41 32 19
41 33 47
41 34 4
41 35 14
41 36 2
41 37 26
41 38 1
41 39 8
41 40 37
42 0 50
42 1 53
42 2 19
42 3 28
42 4 15
42 5 38
42 6 33
42 7 10
42 8 11
42 9 50
42 10 18
42 11 35
42 12 18
42 13 46
42 14 35
42 15 2
42 16 56
42 17 7
42 18 8
42 19 53
42 20 45
42 21 4
42 22 32
42 23 13
42 24 35
42 25 25
42 26 17
42 27 14
42 28 26
42 29 40
42 30 8
42 31 32
42 32 53
42 33 58
42 34 10
42 35 33
42 36 59
42 37 54
42 38 9
42 39 37
42 40 49
42 41 8
43 0 33
43 1 36
43 2 26
43 3 30
43 4 1
43 5 6
43 6 17
43 7 6
43 8 9
43 9 22
43 10 39
43 11 17
43 12 8
43 13 50
43 14 7
43 15 60
43 16 12
43 17 36
43 18 18
43 19 26
43 20 15
43 21 26
43 22 40
43 23 8
43 24 11
43 25 3
43 26 52
43 27 10
43 28 20
43 29 46
43 30 36
43 31 38
43 32 33
43 33 48
43 34 56
43 35 4
43 36 36
43 37 45
43 38 33
43 39 10
43 40 45
43 41 12
43 42 35
44 0 53
44 1 8
44 2 10
44 3 47
44 4 14
44 5 56
44 6 8
44 7 10
44 8 50
44 9 33
44 10 46
44 11 40
44 12 21
44 13 15
44 14 38
44 15 4
44 16 21
44 17 13
44 18 19
44 19 26
44 20 55
44 21 41
44 22 56
44 23 54
44 24 35
44 25 39
44 26 1
44 27 25
44 28 56
44 29 31
44 30 59
44 31 42
44 32 8
44 33 26
44 34 52
44 35 45
44 36 20
44 37 23
44 38 8
44 39 32
44 40 31
44 41 10
44 42 21
44 43 36
45 0 22
45 1 48
45 2 32
45 3 3
45 4 3
45 5 7
45 6 4
45 7 41
45 8 23
45 9 27
45 10 38
45 11 34
45 12 17
45 13 48
45 14 44
45 15 26
45 16 46
45 17 50
45 18 19
45 19 5
45 20 55
45 21 23
45 22 6
45 23 29
45 24 19
45 25 47
45 26 11
45 27 39
45 28 19
45 29 50
45 30 15
45 31 43
45 32 38
45 33 14
45 34 29
45 35 51
45 36 28
45 37 58
45 38 47
45 39 39
45 40 5
45 41 53
45 42 12
45 43 37
45 44 30
46 0 24
46 1 25
46 2 24
46 3 44
46 4 11
46 5 48
46 6 7
46 7 41
46 8 7
46 9 27
46 10 60
46 11 49
46 12 5
46 13 4
46 14 59
46 15 1
46 16 9
46 17 41
46 18 15
46 19 17
46 20 15
46 21 37
46 22 34
46 23 15
46 24 47
46 25 7
46 26 60
46 27 43
46 28 1
46 29 34
46 30 36
46 31 30
46 32 56
46 33 13
46 34 52
46 35 26
46 36 37
46 37 51
46 38 57
46 39 19
46 40 3
46 41 53
46 42 24
46 43 3
46 44 26
46 45 38
47 0 35
47 1 22
47 2 3
47 3 57
47 4 51
47 5 56
47 6 22
47 7 24
47 8 44
47 9 29
47 10 56
47 11 33
47 12 6
47 13 28
47 14 12
47 15 14
47 16 24
47 17 28
47 18 25
47 19 49
47 20 24
47 21 2
47 22 11
47 23 41
47 24 50
47 25 4
47 26 12
47 27 35
47 28 14
47 29 39
47 30 32
47 31 43
47 32 27
47 33 55
47 34 14
47 35 20
47 36 56
47 37 41
47 38 13
47 39 30
47 40 43
47 41 34
47 42 40
47 43 13
47 44 31
47 45 58
47 46 33
48 0 8
48 1 34
48 2 19
48 3 48
48 4 20
48 5 8
48 6 1
48 7 14
48 8 8
48 9 37
48 10 25
48 11 38
48 12 55
48 13 52
48 14 40
48 15 2
48 16 3
48 17 2
48 18 58
48 19 33
48 20 60
48 21 8
48 22 57
48 23 1
48 24 42
48 25 10
48 26 3
48 27 31
48 28 56
48 29 18
48 30 8
48 31 24
48 32 31
48 33 45
48 34 40
48 35 24
48 36 12
48 37 3
48 38 11
48 39 57
48 40 40
48 41 5
48 42 2
48 43 52
48 44 18
48 45 57
48 46 26
48 47 60
49 0 12
49 1 35
49 2 27
49 3 21
49 4 54
49 5 41
49 6 24
49 7 58
49 8 49
49 9 21
49 10 39
49 11 35
49 12 57
49 13 31
49 14 9
49 15 37
49 16 56
49 17 8
49 18 46
49 19 16
49 20 6
49 21 30
49 22 36
49 23 40
49 24 13
49 25 22
49 26 38
49 27 17
49 28 7
49 29 48
49 30 25
49 31 15
49 32 23
49 33 33
49 34 51
49 35 59
49 36 42
49 37 51
49 38 53
49 39 40
49 40 37
49 41 37
49 42 7
49 43 5
49 44 60
49 45 35
49 46 17
49 47 4
49 48 3
50 0 48
50 1 19
50 2 38
50 3 53
50 4 29
50 5 22
50 6 19
50 7 3
50 8 23
50 9 56
50 10 31
50 11 40
50 12 46
50 13 13
50 14 47
50 15 29
50 16 60
50 17 5
50 18 10
50 19 37
50 20 17
50 21 19
50 22 29
50 23 41
50 24 48
50 25 5
50 26 43
50 27 9
50 28 41
50 29 55
50 30 1
50 31 40
50 32 9
50 33 27
50 34 17
50 35 26
50 36 11
50 37 38
50 38 48
50 39 49
50 40 13
50 41 30
50 42 53
50 43 57
50 44 42
50 45 24
50 46 12
50 47 52
50 48 2
50 49 28
51 0 22
51 1 26
51 2 30
51 3 33
51 4 58
51 5 22
51 6 37
51 7 2
51 8 59
51 9 39
51 10 9
51 11 19
51 12 30
51 13 29
51 14 21
51 15 35
51 16 58
51 17 37
51 18 17
51 19 30
51 20 27
51 21 19
51 22 32
51 23 43
51 24 44
51 25 45
51 26 21
51 27 28
51 28 8
51 29 21
51 30 11
51 31 32
51 32 14
51 33 20
51 34 13
51 35 21
51 36 19
51 37 39
51 38 1
51 39 14
51 40 44
51 41 56
51 42 58
51 43 39
51 44 48
51 45 8
51 46 39
51 47 24
51 48 50
51 49 9
51 50 25
52 0 51
52 1 23
52 2 26
52 3 59
52 4 39
52 5 58
52 6 22
52 7 42
52 8 42
52 9 34
52 10 5
52 11 49
52 12 1
52 13 60
52 14 48
52 15 48
52 16 16
52 17 40
52 18 7
52 19 42
52 20 31
52 21 28
52 22 28
52 23 3
52 24 48
52 25 46
52 26 60
52 27 53
52 28 39
52 29 49
52 30 32
52 31 31
52 32 21
52 33 56
52 34 7
52 35 37
52 36 59
52 37 18
52 38 40
52 39 29
52 40 5
52 41 20
52 42 26
52 43 34
52 44 44
52 45 53
52 46 34
52 47 41
52 48 31
52 49 39
52 50 45
52 51 25
53 0 22
53 1 46
53 2 40
53 3 45
53 4 22
53 5 18
53 6 11
53 7 48
53 8 9
53 9 2
53 10 57
53 11 20
53 12 17
53 13 4
53 14 13
53 15 16
53 16 53
53 17 48
53 18 51
53 19 30
53 20 16
53 21 30
53 22 57
53 23 40
53 24 28
53 25 30
53 26 30
53 27 43
53 28 57
53 29 39
53 30 58
53 31 27
53 32 39
53 33 43
53 34 51
53 35 11
53 36 29
53 37 41
53 38 22
53 39 31
53 40 39
53 41 11
53 42 10
53 43 44
53 44 30
53 45 44
53 46 23
53 47 1
53 48 56
53 49 11
53 50 31
53 51 4
53 52 23
54 0 42
54 1 12
54 2 27
54 3 53
54 4 15
54 5 30
54 6 39
54 7 51
54 8 19
54 9 27
54 10 58
54 11 38
54 12 20
54 13 3
54 14 42
54 15 47
54 16 3
54 17 46
54 18 56
54 19 44
54 20 59
54 21 27
54 22 8
54 23 16
54 24 20
54 25 1
54 26 30
54 27 3
54 28 18
54 29 25
54 30 25
54 31 2
54 32 39
54 33 43
54 34 43
54 35 28
54 36 48
54 37 25
54 38 26
54 39 60
54 40 56
54 41 2
54 42 29
54 43 51
54 44 54
54 45 59
54 46 16
54 47 17
54 48 48
54 49 59
54 50 3
54 51 44
54 52 35
54 53 28
55 0 55
55 1 16
55 2 9
55 3 11
55 4 24
55 5 22
55 6 32
55 7 27
55 8 6
55 9 7
55 10 30
55 11 56
55 12 6
55 13 24
55 14 21
55 15 56
55 16 45
55 17 26
55 18 48
55 19 41
55 20 13
55 21 1
55 22 26
55 23 59
55 24 53
55 25 18
55 26 55
55 27 55
55 28 32
55 29 40
55 30 56
55 31 9
55 32 54
55 33 26
55 34 37
55 35 27
55 36 49
55 37 9
55 38 8
55 39 35
55 40 22
55 41 50
55 42 13
55 43 59
55 44 32
55 45 28
55 46 10
55 47 31
55 48 20
55 49 26
55 50 40
55 51 21
55 52 29
55 53 56
55 54 5
56 0 48
56 1 55
56 2 19
56 3 28
56 4 46
56 5 56
56 6 4
56 7 10
56 8 43
56 9 35
56 10 51
56 11 54
56 12 51
56 13 42
56 14 42
56 15 43
56 16 39
56 17 38
56 18 28
56 19 2
56 20 45
56 21 38
56 22 57
56 23 56
56 24 18
56 25 24
56 26 25
56 27 9
56 28 52
56 29 11
56 30 23
56 31 31
56 32 39
56 33 40
56 34 57
56 35 58
56 36 46
56 37 16
56 38 57
56 39 8
56 40 26
56 41 45
56 42 43
56 43 11
56 44 47
56 45 12
56 46 17
56 47 36
56 48 23
56 49 51
56 50 25
56 51 51
56 52 39
56 53 6
56 54 36
56 55 11
57 0 58
57 1 3
57 2 48
57 3 7
57 4 53
57 5 7
57 6 4
57 7 19
57 8 1
57 9 35
57 10 50
57 11 46
57 12 15
57 13 17
57 14 45
57 15 37
57 16 39
57 17 41
57 18 11
57 19 6
57 20 54
57 21 10
57 22 59
57 23 16
57 24 16
57 25 53
57 26 2
57 27 36
57 28 37
57 29 8
57 30 27
57 31 38
57 32 42
57 33 42
57 34 59
57 35 6
57 36 49
57 37 28
57 38 27
57 39 26
57 40 33
57 41 48
57 42 30
57 43 31
57 44 29
57 45 57
57 46 6
57 47 55
57 48 36
57 49 45
57 50 21
57 51 10
57 52 1
57 53 25
57 54 41
57 55 43
57 56 24
58 0 58
58 1 30
58 2 44
58 3 59
58 4 49
58 5 47
58 6 43
58 7 4
58 8 26
58 9 11
58 10 42
58 11 37
58 12 8
58 13 46
58 14 34
58 15 5
58 16 31
58 17 19
58 18 32
58 19 34
58 20 51
58 21 54
58 22 10
58 23 23
58 24 39
58 25 3
58 26 11
58 27 3
58 28 18
58 29 53
58 30 56
58 31 30
58 32 6
58 33 50
58 34 32
58 35 20
58 36 34
58 37 2
58 38 53
58 39 55
58 40 28
58 41 23
58 42 60
58 43 51
58 44 12
58 45 48
58 46 31
58 47 24
58 48 22
58 49 22
58 50 11
58 51 22
58 52 34
58 53 5
58 54 44
58 55 50
58 56 57
58 57 53
59 0 37
59 1 52
59 2 59
59 3 40
59 4 13
59 5 43
59 6 27
59 7 41
59 8 34
59 9 32
59 10 28
59 11 39
59 12 1
59 13 16
59 14 32
59 15 14
59 16 58
59 17 28
59 18 17
59 19 56
59 20 44
59 21 16
59 22 53
59 23 23
59 24 21
59 25 25
59 26 5
59 27 37
59 28 40
59 29 26
59 30 24
59 31 1
59 32 2
59 33 14
59 34 56
59 35 38
59 36 38
59 37 36
59 38 42
59 39 20
59 40 7
59 41 31
59 42 47
59 43 4
59 44 54
59 45 17
59 46 16
59 47 56
59 48 50
59 49 46
59 50 1
59 51 54
59 52 32
59 53 13
59 54 49
59 55 37
59 56 48
59 57 47
59 58 15
